Optimal - objective value 454.49000000
      0 x0_1                   1                   38.95
      5 x0_6                   1                   41.27
      8 x0_9                   1                   31.58
     13 x1_4                   1                       0
     20 x2_0                   1                   72.14
     39 x3_10                  1                    22.2
     40 x4_0                   1                       0
     57 x5_8                   1                       0
     65 x6_5                   1                       0
     70 x7_0                   1                   43.65
     87 x8_7                   1                       0
     93 x9_3                   1                       0
    102 x10_2                  1                    1.17
    110 u1                     6                       0
    111 u2                    18                       0
    112 u3                    10                       0
    113 u4                    12                       0
    114 u5                    10                       0
    115 u6       4.99999999999999                       0
    116 u7                    18                       0
    117 u8                    14                       0
    118 u9                     6                       0
    119 u10                   14                       0
